p edge 50 380
e 1 6
e 1 7
e 1 8
e 1 14
e 1 16
e 1 18
e 1 21
e 1 22
e 1 23
e 1 30
e 1 32
e 1 34
e 1 43
e 1 44
e 1 45
e 1 46
e 2 6
e 2 8
e 2 10
e 2 11
e 2 12
e 2 14
e 2 25
e 2 39
e 2 40
e 2 41
e 2 44
e 3 8
e 3 13
e 3 17
e 3 18
e 3 21
e 3 22
e 3 24
e 3 29
e 3 33
e 3 36
e 3 37
e 3 39
e 3 43
e 3 44
e 3 46
e 3 50
e 4 7
e 4 8
e 4 10
e 4 11
e 4 12
e 4 13
e 4 15
e 4 20
e 4 29
e 4 30
e 4 43
e 4 50
e 5 12
e 5 14
e 5 18
e 5 21
e 5 24
e 5 29
e 5 31
e 5 34
e 5 35
e 5 37
e 5 38
e 5 40
e 5 43
e 5 46
e 6 10
e 6 16
e 6 18
e 6 19
e 6 20
e 6 21
e 6 24
e 6 28
e 6 31
e 6 34
e 6 38
e 6 40
e 6 41
e 6 42
e 6 45
e 6 47
e 7 9
e 7 10
e 7 14
e 7 17
e 7 18
e 7 28
e 7 31
e 7 32
e 7 36
e 7 37
e 7 39
e 7 45
e 7 47
e 7 49
e 8 15
e 8 20
e 8 24
e 8 28
e 8 35
e 8 36
e 8 43
e 8 47
e 8 49
e 9 16
e 9 19
e 9 20
e 9 27
e 9 32
e 9 33
e 9 36
e 9 37
e 9 38
e 9 44
e 9 50
e 10 12
e 10 13
e 10 14
e 10 18
e 10 19
e 10 24
e 10 26
e 10 31
e 10 32
e 10 33
e 10 34
e 10 35
e 10 37
e 10 38
e 10 39
e 10 46
e 10 48
e 10 50
e 11 14
e 11 16
e 11 23
e 11 25
e 11 27
e 11 28
e 11 29
e 11 30
e 11 33
e 11 35
e 11 38
e 11 40
e 11 42
e 11 44
e 11 46
e 11 47
e 11 49
e 12 13
e 12 17
e 12 29
e 12 31
e 12 34
e 12 36
e 12 38
e 12 47
e 12 49
e 13 19
e 13 22
e 13 38
e 13 39
e 13 40
e 14 16
e 14 18
e 14 19
e 14 23
e 14 33
e 14 44
e 14 45
e 15 16
e 15 17
e 15 21
e 15 24
e 15 26
e 15 28
e 15 30
e 15 32
e 15 36
e 15 38
e 15 40
e 15 42
e 15 44
e 15 45
e 15 46
e 15 49
e 16 19
e 16 26
e 16 29
e 16 40
e 16 41
e 16 46
e 16 48
e 16 50
e 17 21
e 17 28
e 17 31
e 17 38
e 17 47
e 17 48
e 17 50
e 18 19
e 18 23
e 18 25
e 18 28
e 18 39
e 18 42
e 18 47
e 18 48
e 18 49
e 19 23
e 19 24
e 19 27
e 19 28
e 19 30
e 19 36
e 19 43
e 19 44
e 19 46
e 19 47
e 19 48
e 19 49
e 19 50
e 20 23
e 20 24
e 20 27
e 20 34
e 20 36
e 20 43
e 20 48
e 20 49
e 21 22
e 21 23
e 21 24
e 21 27
e 21 30
e 21 39
e 21 42
e 21 49
e 22 25
e 22 28
e 22 29
e 22 30
e 22 39
e 22 47
e 22 49
e 23 25
e 23 31
e 23 32
e 23 33
e 23 34
e 23 37
e 23 43
e 23 44
e 24 25
e 24 28
e 24 30
e 24 31
e 24 32
e 24 34
e 24 38
e 24 39
e 24 41
e 24 42
e 24 45
e 24 47
e 24 48
e 25 28
e 25 31
e 25 33
e 25 34
e 25 43
e 25 45
e 25 47
e 25 50
e 26 34
e 26 40
e 26 42
e 26 45
e 26 50
e 27 28
e 27 36
e 27 40
e 27 42
e 27 43
e 27 47
e 28 29
e 28 31
e 28 32
e 28 36
e 28 39
e 28 42
e 28 45
e 28 47
e 29 30
e 29 38
e 29 40
e 29 43
e 29 45
e 29 46
e 29 48
e 30 34
e 30 37
e 30 38
e 30 41
e 30 43
e 30 46
e 30 50
e 31 32
e 31 36
e 31 37
e 31 38
e 31 45
e 31 46
e 31 47
e 31 48
e 32 35
e 32 36
e 32 37
e 32 40
e 32 41
e 32 45
e 32 46
e 32 48
e 32 50
e 33 35
e 33 37
e 33 44
e 33 45
e 33 46
e 33 49
e 34 36
e 34 38
e 34 40
e 34 49
e 35 37
e 35 40
e 35 43
e 35 46
e 35 49
e 35 50
e 36 38
e 36 43
e 36 44
e 36 46
e 36 49
e 37 39
e 37 41
e 37 44
e 37 50
e 38 39
e 38 42
e 38 44
e 38 48
e 39 42
e 39 49
e 40 41
e 40 44
e 41 42
e 41 43
e 41 46
e 41 48
e 42 43
e 42 50
e 43 46
e 43 47
e 43 48
e 43 49
e 44 50
e 45 46
e 45 47
e 45 49
e 46 47
e 48 49
e 49 50
